
******************************************************************************
This program contains Ipopt, a library for large-scale nonlinear optimization.
 Ipopt is released as open source code under the Eclipse Public License (EPL).
         For more information visit http://projects.coin-or.org/Ipopt

This version of Ipopt was compiled from source code available at
    https://github.com/IDAES/Ipopt as part of the Institute for the Design of
    Advanced Energy Systems Process Systems Engineering Framework (IDAES PSE
    Framework) Copyright (c) 2018-2019. See https://github.com/IDAES/idaes-pse.

This version of Ipopt was compiled using HSL, a collection of Fortran codes
    for large-scale scientific computation.  All technical papers, sales and
    publicity material resulting from use of the HSL codes within IPOPT must
    contain the following acknowledgement:
        HSL, a collection of Fortran codes for large-scale scientific
        computation. See http://www.hsl.rl.ac.uk.
******************************************************************************

This is Ipopt version 3.13.2, running with linear solver ma27.

Number of nonzeros in equality constraint Jacobian...:     1538
Number of nonzeros in inequality constraint Jacobian.:        0
Number of nonzeros in Lagrangian Hessian.............:     2356

Total number of variables............................:      558
                     variables with only lower bounds:      124
                variables with lower and upper bounds:      372
                     variables with only upper bounds:        0
Total number of equality constraints.................:      552
Total number of inequality constraints...............:        0
        inequality constraints with only lower bounds:        0
   inequality constraints with lower and upper bounds:        0
        inequality constraints with only upper bounds:        0

iter    objective    inf_pr   inf_du lg(mu)  ||d||  lg(rg) alpha_du alpha_pr  ls
   0  0.0000000e+00 2.50e+00 3.18e-14  -1.0 0.00e+00    -  0.00e+00 0.00e+00   0
   1  5.1524096e+02 2.31e+00 4.89e+05  -1.0 3.08e+06    -  2.38e-02 7.41e-02h  1
   2  5.4079342e+02 2.31e+00 7.51e+05  -1.0 6.78e+06  -4.0 7.77e-04 2.95e-03h  4
   3  5.5212199e+02 2.30e+00 1.07e+06  -1.0 6.96e+06  -3.6 1.55e-02 1.66e-03h  4
   4  5.6088858e+02 2.30e+00 2.05e+06  -1.0 6.58e+06  -3.1 1.57e-02 1.72e-03h  3
   5  5.5051137e+02 2.30e+00 2.15e+06  -1.0 8.77e+06  -3.6 1.42e-02 8.03e-04h  1
   6r 5.5051137e+02 2.30e+00 9.99e+02   0.4 0.00e+00  -4.1 0.00e+00 4.35e-07R  5
   7r 5.5051100e+02 1.24e+00 9.96e+02   0.4 2.02e+03    -  2.22e-02 2.71e-03f  1
   8  5.3316839e+02 4.68e+00 1.94e+03  -1.0 7.78e+07    -  9.48e-03 7.60e-04f  1
   9  5.2595039e+02 4.75e+00 2.26e+04  -1.0 1.01e+07    -  1.09e-02 6.11e-03f  3
iter    objective    inf_pr   inf_du lg(mu)  ||d||  lg(rg) alpha_du alpha_pr  ls
  10  5.3428525e+02 4.76e+00 2.27e+04  -1.0 9.87e+06    -  6.04e-02 1.18e-03h  5
  11  5.3578825e+02 4.76e+00 2.27e+04  -1.0 8.35e+06    -  4.07e-03 3.26e-04h  7
  12  2.0615108e+03 1.22e+00 4.96e+06  -1.0 7.62e+06    -  2.10e-02 2.79e-02H  1
  13  2.0645351e+03 1.22e+00 4.96e+06  -1.0 1.11e+08    -  1.68e-03 2.75e-05h  1
  14  2.8125810e+03 1.18e+00 4.94e+06  -1.0 3.22e+07    -  2.88e-02 8.46e-03h  3
  15  3.9796283e+03 1.10e+00 4.91e+06  -1.0 2.67e+07    -  2.34e-02 1.15e-02h  3
  16  4.9003215e+03 1.10e+00 4.89e+06  -1.0 3.35e+07    -  1.68e-02 3.16e-03h  5
  17  5.1115522e+03 1.10e+00 4.89e+06  -1.0 1.52e+08    -  4.13e-03 2.41e-04h  6
  18  5.1078916e+03 1.09e+00 4.89e+06  -1.0 4.37e+06  -4.6 6.41e-03 1.02e-03f  7
  19  5.1718466e+03 1.09e+00 4.88e+06  -1.0 7.07e+06  -5.1 7.81e-03 1.53e-03h  5
iter    objective    inf_pr   inf_du lg(mu)  ||d||  lg(rg) alpha_du alpha_pr  ls
  20  1.3009858e+04 1.03e+00 1.65e+07  -1.0 1.19e+07  -5.5 4.18e-02 3.94e-02h  1
  21  1.4052960e+04 1.02e+00 1.69e+07  -1.0 2.20e+07  -6.0 2.31e-02 6.33e-03H  1
  22  1.3869486e+04 1.02e+00 1.71e+07  -1.0 1.19e+07  -5.6 5.22e-02 3.59e-03H  1
  23  1.2466984e+04 1.06e+00 2.07e+07  -1.0 3.53e+07  -6.1 5.24e-03 5.92e-03f  3
  24  1.2383702e+04 1.06e+00 2.06e+07  -1.0 4.34e+06  -4.7 4.64e-02 1.10e-03H  1
  25  1.2486102e+04 1.06e+00 2.06e+07  -1.0 7.33e+06  -5.2 7.68e-03 1.35e-03h  4
  26  1.2478262e+04 1.06e+00 2.06e+07  -1.0 9.66e+06  -3.9 2.87e-04 5.55e-05f  1
  27  1.2230460e+04 1.09e+00 4.83e+07  -1.0 4.13e+06  -3.5 7.13e-05 2.37e-02f  2
  28  1.2231971e+04 1.09e+00 4.83e+07  -1.0 2.52e+06  -3.9 1.93e-03 9.92e-05h  1
  29  1.2233621e+04 1.09e+00 4.83e+07  -1.0 4.60e+06  -4.4 7.59e-03 1.80e-04h  1
iter    objective    inf_pr   inf_du lg(mu)  ||d||  lg(rg) alpha_du alpha_pr  ls
  30  1.2260692e+04 1.09e+00 4.83e+07  -1.0 3.72e+06  -4.0 5.67e-04 1.26e-03h  1
  31  1.2315232e+04 1.09e+00 4.80e+07  -1.0 5.43e+06  -4.5 2.96e-03 5.08e-03h  3
  32  1.2399583e+04 1.08e+00 4.79e+07  -1.0 3.26e+06  -4.0 2.77e-03 1.71e-03h  1
  33  1.2933786e+04 1.08e+00 4.75e+07  -1.0 6.98e+06  -4.5 2.66e-03 7.54e-03h  3
  34  1.3254498e+04 1.08e+00 4.73e+07  -1.0 4.21e+06  -4.1 2.13e-03 4.30e-03h  1
  35  1.3807287e+04 1.08e+00 4.67e+07  -1.0 1.13e+07  -4.6 5.87e-04 7.25e-03h  4
  36  1.3759053e+04 1.08e+00 4.67e+07  -1.0 5.15e+06  -4.1 1.62e-03 2.49e-04H  1
  37  1.3768144e+04 1.08e+00 4.67e+07  -1.0 3.84e+06  -3.7 3.79e-04 1.53e-04h  1
  38  1.3553956e+04 1.07e+00 4.66e+07  -1.0 5.64e+06  -4.2 1.65e-04 1.38e-03H  1
  39  1.3565173e+04 1.07e+00 4.66e+07  -1.0 3.82e+06  -3.8 2.52e-05 1.92e-04h  1
iter    objective    inf_pr   inf_du lg(mu)  ||d||  lg(rg) alpha_du alpha_pr  ls
  40  1.4580320e+04 1.07e+00 4.58e+07  -1.0 6.62e+06  -4.2 2.94e-04 1.30e-02h  4
  41  1.5118720e+04 1.07e+00 4.52e+07  -1.0 3.69e+06  -3.8 3.28e-04 9.46e-03h  1
  42  1.5123431e+04 1.07e+00 4.52e+07  -1.0 4.10e+06  -3.4 1.89e-02 6.03e-05H  1
  43  1.4811173e+04 1.06e+00 4.52e+07  -1.0 4.78e+06  -3.9 1.04e-02 1.59e-03H  1
  44  1.4891383e+04 1.06e+00 4.51e+07  -1.0 3.22e+06  -3.4 2.87e-03 1.62e-03h  1
  45  1.4995808e+04 1.06e+00 5.08e+07  -1.0 6.14e+06  -3.9 3.93e-03 1.62e-03h  6
  46  1.7035501e+04 9.35e-01 3.71e+07  -1.0 1.00e+06  -3.5 1.03e-02 1.67e-01h  3
  47  1.7065909e+04 9.34e-01 3.71e+07  -1.0 1.92e+07  -4.0 4.24e-03 3.21e-04h  7
  48  1.7316411e+04 9.22e-01 3.65e+07  -1.0 2.08e+06  -3.5 5.81e-03 1.63e-02h  2
  49  1.7381932e+04 9.15e-01 3.62e+07  -1.0 3.93e+06  -3.1 6.88e-04 7.50e-03h  1
iter    objective    inf_pr   inf_du lg(mu)  ||d||  lg(rg) alpha_du alpha_pr  ls
  50  1.7380948e+04 9.15e-01 3.62e+07  -1.0 5.86e+06  -1.8 7.75e-04 1.29e-04f  1
  51  1.7441352e+04 9.00e-01 7.84e+08  -1.0 5.17e+06  -1.4 9.52e-04 1.74e-02h  2
  52  1.7245190e+04 8.99e-01 7.37e+08  -1.0 7.07e+06  -1.8 4.73e-04 3.22e-03f  3
  53  1.7232423e+04 8.98e-01 7.36e+08  -1.0 7.29e+06  -1.4 8.03e-05 5.87e-04f  5
  54r 1.7232423e+04 8.98e-01 1.00e+03  -0.0 0.00e+00   0.8 0.00e+00 3.77e-07R  3
  55r 1.7232357e+04 7.63e-01 9.98e+02  -0.0 8.12e+03    -  1.48e-02 1.59e-03f  1
  56  1.7310541e+04 5.54e-01 1.83e+05  -1.0 3.75e+05    -  5.45e-01 2.70e-01h  1
  57  1.8115575e+04 4.67e-01 1.80e+05  -1.0 4.58e+05    -  4.08e-03 1.38e-01h  1
  58  1.7472459e+04 1.00e+00 1.81e+05  -1.0 6.43e+05    -  2.59e-02 1.24e-01f  4
  59  1.6689296e+04 5.69e+00 1.82e+05  -1.0 4.61e+05    -  1.38e-01 2.47e-01f  3
iter    objective    inf_pr   inf_du lg(mu)  ||d||  lg(rg) alpha_du alpha_pr  ls
  60  1.7192293e+04 4.41e+00 1.51e+05  -1.0 4.31e+05    -  6.63e-01 2.25e-01h  2
  61  1.7299236e+04 4.17e+00 1.42e+05  -1.0 3.83e+05    -  7.10e-01 5.42e-02h  5
  62  1.7299362e+04 4.17e+00 1.95e+05  -1.0 2.09e+05   0.3 5.00e-01 5.17e-04h  1
  63  1.7299391e+04 4.17e+00 8.09e+06  -1.0 2.28e+05  -0.1 6.26e-01 2.82e-04h  2
  64  1.7458423e+04 3.31e+00 1.38e+10  -1.0 2.28e+05  -0.6 6.26e-01 4.95e-01h  2
  65  1.8480658e+04 1.72e+00 6.29e+10  -1.0 1.31e+05  -1.1 8.42e-01 4.80e-01h  1
  66  1.8485507e+04 1.68e+00 6.17e+10  -1.0 2.97e+04  -0.7 9.61e-01 2.00e-02h  1
  67  1.8485572e+04 1.68e+00 6.16e+10  -1.0 4.36e+04  -1.1 9.82e-01 1.24e-04h  1
  68  1.8484088e+04 1.68e+00 6.14e+10  -1.0 5.64e+04  -1.6 9.73e-01 4.11e-03h  1
  69  1.8448768e+04 1.49e+00 5.46e+10  -1.0 6.10e+04  -1.2 1.00e+00 1.10e-01f  1
iter    objective    inf_pr   inf_du lg(mu)  ||d||  lg(rg) alpha_du alpha_pr  ls
  70  1.8364657e+04 1.10e+00 4.03e+10  -1.0 5.05e+04  -1.7 7.40e-01 2.64e-01f  1
  71  1.8173219e+04 1.10e-02 1.84e+09  -1.0 4.19e+04  -1.2 4.33e-01 9.90e-01f  1
  72  1.8166780e+04 1.10e-04 1.87e+07  -1.0 1.79e+03  -1.7 5.89e-01 9.90e-01h  1
  73  1.8166760e+04 8.26e-05 1.40e+07  -1.0 2.09e+01  -2.2 9.07e-01 2.47e-01f  3
  74  1.8166698e+04 4.17e-05 7.09e+06  -1.0 1.48e+01  -2.7 1.12e-01 4.95e-01f  2
  75  1.8166563e+04 2.11e-05 3.58e+06  -1.0 8.03e+00  -3.1 5.89e-01 4.95e-01f  2
  76  1.8166187e+04 1.06e-05 1.81e+06  -1.0 2.17e+01  -3.6 4.10e-01 4.95e-01f  2
  77  1.8165075e+04 5.37e-06 5.84e+06  -1.0 6.38e+01  -4.1 6.71e-01 4.95e-01f  2
  78  1.8158425e+04 5.37e-08 4.60e+07  -1.0 1.91e+02  -4.6 3.17e-01 9.90e-01f  1
  79  1.8138449e+04 1.57e-07 1.35e+09  -1.0 5.74e+02  -5.1 7.92e-01 9.90e-01f  1
iter    objective    inf_pr   inf_du lg(mu)  ||d||  lg(rg) alpha_du alpha_pr  ls
  80  5.8620081e+03 1.41e+00 4.43e+11  -1.0 9.48e+05    -  3.42e-01 9.90e-01f  1
  81  5.0469384e+03 1.28e+00 1.88e+13  -1.0 1.11e+06    -  4.39e-01 1.59e-01f  2
  82  4.8373210e+03 2.81e+00 6.81e+13  -1.0 4.92e+05    -  9.12e-01 2.47e-01f  3
  83  4.1699650e+03 3.36e+00 4.97e+13  -1.0 4.65e+05    -  1.59e-01 7.67e-01f  1
  84  4.1490287e+03 3.17e+00 3.88e+14  -1.0 2.28e+04  -5.5 1.00e+00 6.26e-02f  1
  85  4.5373323e+03 2.78e+00 2.70e+14  -1.0 4.14e+05    -  2.03e-01 2.47e-01h  3
  86  4.6316571e+03 2.69e+00 3.74e+14  -1.0 1.13e+06    -  2.27e-01 4.85e-02h  4
  87  4.7212360e+03 2.66e+00 4.69e+14  -1.0 2.00e+06    -  1.61e-01 1.49e-02h  5
  88  4.8249796e+03 2.63e+00 5.97e+14  -1.0 2.59e+06    -  2.01e-01 1.16e-02h  5
  89  4.9385425e+03 2.61e+00 5.98e+14  -1.0 3.21e+06    -  1.87e-02 9.38e-03h  5
iter    objective    inf_pr   inf_du lg(mu)  ||d||  lg(rg) alpha_du alpha_pr  ls
  90  4.9939528e+03 2.60e+00 5.94e+14  -1.0 3.82e+06    -  2.37e-03 3.95e-03h  6
  91  5.0144587e+03 2.60e+00 5.93e+14  -1.0 7.48e+06    -  2.54e-04 1.18e-03h  7
  92  5.0002915e+03 2.49e+00 1.25e+15  -1.0 4.64e+04  -6.0 1.00e+00 4.67e-02f  1
  93  5.1243207e+03 2.46e+00 1.24e+15  -1.0 2.10e+06    -  2.31e-02 1.43e-02h  5
  94  5.2522651e+03 2.43e+00 1.21e+15  -1.0 2.38e+06    -  7.49e-04 1.30e-02h  5
In iteration 94, 31 Slacks too small, adjusting variable bounds
  95  4.6429174e+03 1.19e+00 2.54e+14  -1.0 6.26e+04  -6.5 6.47e-01 9.90e-01f  1
  96  3.7861762e+03 2.69e+00 4.02e+14  -1.0 1.40e+05  -7.0 9.85e-02 1.00e+00f  1
  97  3.0367767e+03 1.53e+00 2.34e+14  -1.0 3.37e+05  -7.4 4.20e-01 5.00e-01f  2
  98  3.0320837e+03 1.55e+00 1.28e+14  -1.0 1.05e+06  -7.9 4.44e-01 1.86e-02f  6
  99  2.9151476e+03 2.59e+00 2.66e+12  -1.0 2.99e+05  -7.5 1.00e+00 5.00e-01f  2
iter    objective    inf_pr   inf_du lg(mu)  ||d||  lg(rg) alpha_du alpha_pr  ls
 100  2.8048055e+03 3.04e+00 2.33e+12  -1.0 2.09e+05  -8.0 5.70e-01 1.24e-01f  3
 101  2.7139103e+03 3.18e+00 2.27e+12  -1.0 3.71e+05  -8.4 1.62e-01 2.44e-02f  3
 102  2.5646641e+03 3.00e+00 2.13e+12  -1.0 1.67e+05    -  2.68e-01 6.21e-02f  3
 103  2.4069847e+03 2.82e+00 2.00e+12  -1.0 1.85e+05    -  2.28e-01 6.27e-02f  3
 104  2.3049635e+03 2.72e+00 1.92e+12  -1.0 2.03e+05    -  1.28e-01 3.82e-02f  3
 105  1.2634761e+03 3.51e+02 1.07e+12  -1.0 2.09e+05    -  2.79e-01 4.43e-01f  1
 106  9.9391143e+02 2.91e+02 8.50e+11  -1.0 2.31e+05  -8.0 4.39e-01 2.05e-01f  1
 107  9.9513447e+02 3.43e+02 7.76e+11  -1.0 3.17e+04  -5.8 4.63e-01 8.71e-02h  1
 108  9.9510621e+02 3.42e+02 7.74e+11  -1.0 9.49e+04  -6.3 5.49e-01 3.09e-03h  2
 109  9.9523913e+02 3.39e+02 7.66e+11  -1.0 2.15e+04  -5.8 1.00e+00 1.04e-02h  2
iter    objective    inf_pr   inf_du lg(mu)  ||d||  lg(rg) alpha_du alpha_pr  ls
 110  9.9529098e+02 3.35e+02 7.58e+11  -1.0 2.73e+04  -6.3 1.00e+00 9.94e-03h  4
 111  9.7536500e+02 2.89e+01 3.61e+10  -1.0 2.56e+04  -6.8 9.60e-01 9.52e-01f  1
 112  8.8517811e+02 1.22e+01 1.40e+04  -1.0 2.26e+04  -7.3 4.60e-01 1.00e+00f  1
 113  8.3612598e+02 1.09e+01 7.34e+03  -1.0 6.98e+04  -7.7 3.33e-01 1.18e-01f  1
 114  8.1030949e+02 1.06e+01 7.12e+03  -1.0 2.74e+05  -8.2 1.00e+00 2.49e-02f  1
 115  7.9699942e+02 1.06e+01 7.07e+03  -1.0 5.51e+05  -8.7 1.09e-02 7.74e-03f  1
 116  6.4096722e+02 9.21e+00 1.28e+05  -1.0 1.56e+06  -9.2 6.72e-04 1.37e-01f  1
 117  5.8447879e+02 8.66e+00 1.21e+05  -1.0 6.01e+05  -8.8 6.71e-02 5.84e-02f  1
 118  4.8942703e+02 1.36e+00 1.07e+06  -1.0 2.75e+04  -7.4 2.97e-02 1.00e+00f  1
 119  4.7766595e+02 6.52e-01 5.87e+05  -1.0 4.17e+03  -6.1 1.50e-01 6.45e-01f  1
iter    objective    inf_pr   inf_du lg(mu)  ||d||  lg(rg) alpha_du alpha_pr  ls
 120  4.7511164e+02 2.45e+01 1.51e+15  -1.7 1.07e+03  -1.2 6.29e-04 1.00e+00f  1
 121  4.7511685e+02 9.82e+00 5.90e+14  -1.7 5.64e+01  -1.6 6.08e-01 1.00e+00h  1
 122  4.7512001e+02 3.28e+00 8.90e+13  -1.7 5.81e+01  -2.1 8.49e-01 1.00e+00h  1
 123  4.7511998e+02 7.28e-01 1.08e+03  -1.7 4.08e+01  -2.6 1.00e+00 1.00e+00h  1
 124  3.8083172e+02 6.08e+00 8.56e+02  -1.7 1.46e+05    -  1.87e-01 2.08e-01f  1
 125  2.9646243e+02 2.08e+00 7.70e+01  -1.7 8.20e+04    -  1.00e+00 1.00e+00f  1
 126  2.9242253e+02 3.19e+00 6.09e+02  -1.7 1.17e+04    -  1.00e+00 2.99e-01f  1
 127  2.8657932e+02 1.57e+00 5.76e+01  -1.7 9.14e+03    -  1.00e+00 1.00e+00f  1
 128  2.8673261e+02 1.52e-01 9.58e+01  -1.7 2.96e+02    -  1.00e+00 4.62e-01h  1
 129  2.8621738e+02 4.48e-03 2.88e+00  -2.5 2.47e+02    -  1.00e+00 1.00e+00h  1
iter    objective    inf_pr   inf_du lg(mu)  ||d||  lg(rg) alpha_du alpha_pr  ls
 130  2.8613568e+02 6.95e-05 2.49e-02  -3.8 3.66e+01    -  1.00e+00 1.00e+00h  1
 131  2.8613105e+02 7.74e-07 9.54e-04  -5.7 2.07e+00    -  1.00e+00 1.00e+00h  1
 132  2.8613099e+02 1.30e-10 5.74e-06  -8.6 2.63e-02    -  1.00e+00 1.00e+00h  1

Number of Iterations....: 132

                                   (scaled)                 (unscaled)
Objective...............:   2.8613098811340956e+02    2.8613098811340956e+02
Dual infeasibility......:   5.7443976402282715e-06    5.7443976402282715e-06
Constraint violation....:   1.2998824239218720e-10    1.2998824239218720e-10
Complementarity.........:   2.5223046922206233e-09    2.5223046922206233e-09
Overall NLP error.......:   2.7934634804430122e-10    5.7443976402282715e-06


Number of objective function evaluations             = 384
Number of objective gradient evaluations             = 133
Number of equality constraint evaluations            = 384
Number of inequality constraint evaluations          = 0
Number of equality constraint Jacobian evaluations   = 135
Number of inequality constraint Jacobian evaluations = 0
Number of Lagrangian Hessian evaluations             = 132
Total CPU secs in IPOPT (w/o function evaluations)   =      0.355
Total CPU secs in NLP function evaluations           =      5.759

EXIT: Optimal Solution Found.
